\ Model Scenatio_[1, 2, 3]
\ LP format - for model browsing. Use MPS format to capture full model detail.
Minimize
  10 y[1] + 13 y[2] + 14 y[3] + 10 y[4] + 5 y[5] + 5 y[6] + 6 y[7] + 12 y[8]
   + 11 y[9] + 14 y[10] + 3 w[1] + 5 w[2] + 6 w[3] + 3 w[4] + 5 w[5]
   + 3 w[6] + 5 w[7] + 8 w[8] + 8 w[9] + 10 w[10]
   + 4.666666666666666 x[1,1,1] + 6.666666666666666 x[1,1,2]
   + 15.33333333333333 x[1,1,3] + 2.333333333333333 x[1,2,1]
   + 3.333333333333333 x[1,2,2] + 7.666666666666666 x[1,2,3]
   + 4.666666666666666 x[1,3,1] + 6.666666666666666 x[1,3,2]
   + 15.33333333333333 x[1,3,3] + 4.666666666666666 x[1,4,1]
   + 6.666666666666666 x[1,4,2] + 15.33333333333333 x[1,4,3]
   + 4.666666666666666 x[1,5,1] + 6.666666666666666 x[1,5,2]
   + 15.33333333333333 x[1,5,3] + 4.666666666666666 x[1,6,1]
   + 6.666666666666666 x[1,6,2] + 15.33333333333333 x[1,6,3]
   + 2.333333333333333 x[1,7,1] + 3.333333333333333 x[1,7,2]
   + 7.666666666666666 x[1,7,3] + 11.66666666666667 x[1,8,1]
   + 16.66666666666666 x[1,8,2] + 38.33333333333333 x[1,8,3]
   + 4.666666666666666 x[1,9,1] + 6.666666666666666 x[1,9,2]
   + 15.33333333333333 x[1,9,3] + 2.333333333333333 x[1,10,1]
   + 3.333333333333333 x[1,10,2] + 7.666666666666666 x[1,10,3] + 2 x[2,1,1]
   + 3.666666666666667 x[2,1,2] + 9.333333333333332 x[2,1,3] + 8 x[2,2,1]
   + 14.66666666666667 x[2,2,2] + 37.33333333333333 x[2,2,3] + 6 x[2,3,1]
   + 11 x[2,3,2] + 28 x[2,3,3] + 4 x[2,4,1] + 7.333333333333333 x[2,4,2]
   + 18.66666666666666 x[2,4,3] + 2 x[2,5,1] + 3.666666666666667 x[2,5,2]
   + 9.333333333333332 x[2,5,3] + 8 x[2,6,1] + 14.66666666666667 x[2,6,2]
   + 37.33333333333333 x[2,6,3] + 4 x[2,7,1] + 7.333333333333333 x[2,7,2]
   + 18.66666666666666 x[2,7,3] + 4 x[2,8,1] + 7.333333333333333 x[2,8,2]
   + 18.66666666666666 x[2,8,3] + 8 x[2,9,1] + 14.66666666666667 x[2,9,2]
   + 37.33333333333333 x[2,9,3] + 10 x[2,10,1]
   + 18.33333333333333 x[2,10,2] + 46.66666666666666 x[2,10,3]
   + 2.666666666666667 x[3,1,1] + 3.333333333333333 x[3,1,2]
   + 7.666666666666666 x[3,1,3] + 5.333333333333333 x[3,2,1]
   + 6.666666666666666 x[3,2,2] + 15.33333333333333 x[3,2,3]
   + 10.66666666666667 x[3,3,1] + 13.33333333333333 x[3,3,2]
   + 30.66666666666666 x[3,3,3] + 13.33333333333333 x[3,4,1]
   + 16.66666666666666 x[3,4,2] + 38.33333333333333 x[3,4,3] + 8 x[3,5,1]
   + 10 x[3,5,2] + 23 x[3,5,3] + 13.33333333333333 x[3,6,1]
   + 16.66666666666666 x[3,6,2] + 38.33333333333333 x[3,6,3]
   + 2.666666666666667 x[3,7,1] + 3.333333333333333 x[3,7,2]
   + 7.666666666666666 x[3,7,3] + 10.66666666666667 x[3,8,1]
   + 13.33333333333333 x[3,8,2] + 30.66666666666666 x[3,8,3]
   + 5.333333333333333 x[3,9,1] + 6.666666666666666 x[3,9,2]
   + 15.33333333333333 x[3,9,3] + 8 x[3,10,1] + 10 x[3,10,2] + 23 x[3,10,3]
   + 3.333333333333333 x[4,1,1] + 5.333333333333333 x[4,1,2]
   + 6.333333333333333 x[4,1,3] + 16.66666666666666 x[4,2,1]
   + 26.66666666666666 x[4,2,2] + 31.66666666666666 x[4,2,3]
   + 6.666666666666666 x[4,3,1] + 10.66666666666667 x[4,3,2]
   + 12.66666666666667 x[4,3,3] + 10 x[4,4,1] + 16 x[4,4,2] + 19 x[4,4,3]
   + 10 x[4,5,1] + 16 x[4,5,2] + 19 x[4,5,3] + 6.666666666666666 x[4,6,1]
   + 10.66666666666667 x[4,6,2] + 12.66666666666667 x[4,6,3]
   + 3.333333333333333 x[4,7,1] + 5.333333333333333 x[4,7,2]
   + 6.333333333333333 x[4,7,3] + 6.666666666666666 x[4,8,1]
   + 10.66666666666667 x[4,8,2] + 12.66666666666667 x[4,8,3]
   + 13.33333333333333 x[4,9,1] + 21.33333333333333 x[4,9,2]
   + 25.33333333333333 x[4,9,3] + 16.66666666666666 x[4,10,1]
   + 26.66666666666666 x[4,10,2] + 31.66666666666666 x[4,10,3]
   + 13.33333333333333 x[5,1,1] + 21.33333333333333 x[5,1,2]
   + 22.66666666666666 x[5,1,3] + 6.666666666666666 x[5,2,1]
   + 10.66666666666667 x[5,2,2] + 11.33333333333333 x[5,2,3]
   + 13.33333333333333 x[5,3,1] + 21.33333333333333 x[5,3,2]
   + 22.66666666666666 x[5,3,3] + 3.333333333333333 x[5,4,1]
   + 5.333333333333333 x[5,4,2] + 5.666666666666666 x[5,4,3]
   + 3.333333333333333 x[5,5,1] + 5.333333333333333 x[5,5,2]
   + 5.666666666666666 x[5,5,3] + 10 x[5,6,1] + 16 x[5,6,2] + 17 x[5,6,3]
   + 10 x[5,7,1] + 16 x[5,7,2] + 17 x[5,7,3] + 6.666666666666666 x[5,8,1]
   + 10.66666666666667 x[5,8,2] + 11.33333333333333 x[5,8,3]
   + 13.33333333333333 x[5,9,1] + 21.33333333333333 x[5,9,2]
   + 22.66666666666666 x[5,9,3] + 16.66666666666666 x[5,10,1]
   + 26.66666666666666 x[5,10,2] + 28.33333333333333 x[5,10,3]
Subject To
 assign_to_open_facility[1,1,1]: - y[1] + x[1,1,1] <= 0
 assign_to_open_facility[1,1,2]: - y[1] + x[1,1,2] <= 0
 assign_to_open_facility[1,1,3]: - y[1] + x[1,1,3] <= 0
 assign_to_open_facility[1,2,1]: - y[2] + x[1,2,1] <= 0
 assign_to_open_facility[1,2,2]: - y[2] + x[1,2,2] <= 0
 assign_to_open_facility[1,2,3]: - y[2] + x[1,2,3] <= 0
 assign_to_open_facility[1,3,1]: - y[3] + x[1,3,1] <= 0
 assign_to_open_facility[1,3,2]: - y[3] + x[1,3,2] <= 0
 assign_to_open_facility[1,3,3]: - y[3] + x[1,3,3] <= 0
 assign_to_open_facility[1,4,1]: - y[4] + x[1,4,1] <= 0
 assign_to_open_facility[1,4,2]: - y[4] + x[1,4,2] <= 0
 assign_to_open_facility[1,4,3]: - y[4] + x[1,4,3] <= 0
 assign_to_open_facility[1,5,1]: - y[5] + x[1,5,1] <= 0
 assign_to_open_facility[1,5,2]: - y[5] + x[1,5,2] <= 0
 assign_to_open_facility[1,5,3]: - y[5] + x[1,5,3] <= 0
 assign_to_open_facility[1,6,1]: - y[6] + x[1,6,1] <= 0
 assign_to_open_facility[1,6,2]: - y[6] + x[1,6,2] <= 0
 assign_to_open_facility[1,6,3]: - y[6] + x[1,6,3] <= 0
 assign_to_open_facility[1,7,1]: - y[7] + x[1,7,1] <= 0
 assign_to_open_facility[1,7,2]: - y[7] + x[1,7,2] <= 0
 assign_to_open_facility[1,7,3]: - y[7] + x[1,7,3] <= 0
 assign_to_open_facility[1,8,1]: - y[8] + x[1,8,1] <= 0
 assign_to_open_facility[1,8,2]: - y[8] + x[1,8,2] <= 0
 assign_to_open_facility[1,8,3]: - y[8] + x[1,8,3] <= 0
 assign_to_open_facility[1,9,1]: - y[9] + x[1,9,1] <= 0
 assign_to_open_facility[1,9,2]: - y[9] + x[1,9,2] <= 0
 assign_to_open_facility[1,9,3]: - y[9] + x[1,9,3] <= 0
 assign_to_open_facility[1,10,1]: - y[10] + x[1,10,1] <= 0
 assign_to_open_facility[1,10,2]: - y[10] + x[1,10,2] <= 0
 assign_to_open_facility[1,10,3]: - y[10] + x[1,10,3] <= 0
 assign_to_open_facility[2,1,1]: - y[1] + x[2,1,1] <= 0
 assign_to_open_facility[2,1,2]: - y[1] + x[2,1,2] <= 0
 assign_to_open_facility[2,1,3]: - y[1] + x[2,1,3] <= 0
 assign_to_open_facility[2,2,1]: - y[2] + x[2,2,1] <= 0
 assign_to_open_facility[2,2,2]: - y[2] + x[2,2,2] <= 0
 assign_to_open_facility[2,2,3]: - y[2] + x[2,2,3] <= 0
 assign_to_open_facility[2,3,1]: - y[3] + x[2,3,1] <= 0
 assign_to_open_facility[2,3,2]: - y[3] + x[2,3,2] <= 0
 assign_to_open_facility[2,3,3]: - y[3] + x[2,3,3] <= 0
 assign_to_open_facility[2,4,1]: - y[4] + x[2,4,1] <= 0
 assign_to_open_facility[2,4,2]: - y[4] + x[2,4,2] <= 0
 assign_to_open_facility[2,4,3]: - y[4] + x[2,4,3] <= 0
 assign_to_open_facility[2,5,1]: - y[5] + x[2,5,1] <= 0
 assign_to_open_facility[2,5,2]: - y[5] + x[2,5,2] <= 0
 assign_to_open_facility[2,5,3]: - y[5] + x[2,5,3] <= 0
 assign_to_open_facility[2,6,1]: - y[6] + x[2,6,1] <= 0
 assign_to_open_facility[2,6,2]: - y[6] + x[2,6,2] <= 0
 assign_to_open_facility[2,6,3]: - y[6] + x[2,6,3] <= 0
 assign_to_open_facility[2,7,1]: - y[7] + x[2,7,1] <= 0
 assign_to_open_facility[2,7,2]: - y[7] + x[2,7,2] <= 0
 assign_to_open_facility[2,7,3]: - y[7] + x[2,7,3] <= 0
 assign_to_open_facility[2,8,1]: - y[8] + x[2,8,1] <= 0
 assign_to_open_facility[2,8,2]: - y[8] + x[2,8,2] <= 0
 assign_to_open_facility[2,8,3]: - y[8] + x[2,8,3] <= 0
 assign_to_open_facility[2,9,1]: - y[9] + x[2,9,1] <= 0
 assign_to_open_facility[2,9,2]: - y[9] + x[2,9,2] <= 0
 assign_to_open_facility[2,9,3]: - y[9] + x[2,9,3] <= 0
 assign_to_open_facility[2,10,1]: - y[10] + x[2,10,1] <= 0
 assign_to_open_facility[2,10,2]: - y[10] + x[2,10,2] <= 0
 assign_to_open_facility[2,10,3]: - y[10] + x[2,10,3] <= 0
 assign_to_open_facility[3,1,1]: - y[1] + x[3,1,1] <= 0
 assign_to_open_facility[3,1,2]: - y[1] + x[3,1,2] <= 0
 assign_to_open_facility[3,1,3]: - y[1] + x[3,1,3] <= 0
 assign_to_open_facility[3,2,1]: - y[2] + x[3,2,1] <= 0
 assign_to_open_facility[3,2,2]: - y[2] + x[3,2,2] <= 0
 assign_to_open_facility[3,2,3]: - y[2] + x[3,2,3] <= 0
 assign_to_open_facility[3,3,1]: - y[3] + x[3,3,1] <= 0
 assign_to_open_facility[3,3,2]: - y[3] + x[3,3,2] <= 0
 assign_to_open_facility[3,3,3]: - y[3] + x[3,3,3] <= 0
 assign_to_open_facility[3,4,1]: - y[4] + x[3,4,1] <= 0
 assign_to_open_facility[3,4,2]: - y[4] + x[3,4,2] <= 0
 assign_to_open_facility[3,4,3]: - y[4] + x[3,4,3] <= 0
 assign_to_open_facility[3,5,1]: - y[5] + x[3,5,1] <= 0
 assign_to_open_facility[3,5,2]: - y[5] + x[3,5,2] <= 0
 assign_to_open_facility[3,5,3]: - y[5] + x[3,5,3] <= 0
 assign_to_open_facility[3,6,1]: - y[6] + x[3,6,1] <= 0
 assign_to_open_facility[3,6,2]: - y[6] + x[3,6,2] <= 0
 assign_to_open_facility[3,6,3]: - y[6] + x[3,6,3] <= 0
 assign_to_open_facility[3,7,1]: - y[7] + x[3,7,1] <= 0
 assign_to_open_facility[3,7,2]: - y[7] + x[3,7,2] <= 0
 assign_to_open_facility[3,7,3]: - y[7] + x[3,7,3] <= 0
 assign_to_open_facility[3,8,1]: - y[8] + x[3,8,1] <= 0
 assign_to_open_facility[3,8,2]: - y[8] + x[3,8,2] <= 0
 assign_to_open_facility[3,8,3]: - y[8] + x[3,8,3] <= 0
 assign_to_open_facility[3,9,1]: - y[9] + x[3,9,1] <= 0
 assign_to_open_facility[3,9,2]: - y[9] + x[3,9,2] <= 0
 assign_to_open_facility[3,9,3]: - y[9] + x[3,9,3] <= 0
 assign_to_open_facility[3,10,1]: - y[10] + x[3,10,1] <= 0
 assign_to_open_facility[3,10,2]: - y[10] + x[3,10,2] <= 0
 assign_to_open_facility[3,10,3]: - y[10] + x[3,10,3] <= 0
 assign_to_open_facility[4,1,1]: - y[1] + x[4,1,1] <= 0
 assign_to_open_facility[4,1,2]: - y[1] + x[4,1,2] <= 0
 assign_to_open_facility[4,1,3]: - y[1] + x[4,1,3] <= 0
 assign_to_open_facility[4,2,1]: - y[2] + x[4,2,1] <= 0
 assign_to_open_facility[4,2,2]: - y[2] + x[4,2,2] <= 0
 assign_to_open_facility[4,2,3]: - y[2] + x[4,2,3] <= 0
 assign_to_open_facility[4,3,1]: - y[3] + x[4,3,1] <= 0
 assign_to_open_facility[4,3,2]: - y[3] + x[4,3,2] <= 0
 assign_to_open_facility[4,3,3]: - y[3] + x[4,3,3] <= 0
 assign_to_open_facility[4,4,1]: - y[4] + x[4,4,1] <= 0
 assign_to_open_facility[4,4,2]: - y[4] + x[4,4,2] <= 0
 assign_to_open_facility[4,4,3]: - y[4] + x[4,4,3] <= 0
 assign_to_open_facility[4,5,1]: - y[5] + x[4,5,1] <= 0
 assign_to_open_facility[4,5,2]: - y[5] + x[4,5,2] <= 0
 assign_to_open_facility[4,5,3]: - y[5] + x[4,5,3] <= 0
 assign_to_open_facility[4,6,1]: - y[6] + x[4,6,1] <= 0
 assign_to_open_facility[4,6,2]: - y[6] + x[4,6,2] <= 0
 assign_to_open_facility[4,6,3]: - y[6] + x[4,6,3] <= 0
 assign_to_open_facility[4,7,1]: - y[7] + x[4,7,1] <= 0
 assign_to_open_facility[4,7,2]: - y[7] + x[4,7,2] <= 0
 assign_to_open_facility[4,7,3]: - y[7] + x[4,7,3] <= 0
 assign_to_open_facility[4,8,1]: - y[8] + x[4,8,1] <= 0
 assign_to_open_facility[4,8,2]: - y[8] + x[4,8,2] <= 0
 assign_to_open_facility[4,8,3]: - y[8] + x[4,8,3] <= 0
 assign_to_open_facility[4,9,1]: - y[9] + x[4,9,1] <= 0
 assign_to_open_facility[4,9,2]: - y[9] + x[4,9,2] <= 0
 assign_to_open_facility[4,9,3]: - y[9] + x[4,9,3] <= 0
 assign_to_open_facility[4,10,1]: - y[10] + x[4,10,1] <= 0
 assign_to_open_facility[4,10,2]: - y[10] + x[4,10,2] <= 0
 assign_to_open_facility[4,10,3]: - y[10] + x[4,10,3] <= 0
 assign_to_open_facility[5,1,1]: - y[1] + x[5,1,1] <= 0
 assign_to_open_facility[5,1,2]: - y[1] + x[5,1,2] <= 0
 assign_to_open_facility[5,1,3]: - y[1] + x[5,1,3] <= 0
 assign_to_open_facility[5,2,1]: - y[2] + x[5,2,1] <= 0
 assign_to_open_facility[5,2,2]: - y[2] + x[5,2,2] <= 0
 assign_to_open_facility[5,2,3]: - y[2] + x[5,2,3] <= 0
 assign_to_open_facility[5,3,1]: - y[3] + x[5,3,1] <= 0
 assign_to_open_facility[5,3,2]: - y[3] + x[5,3,2] <= 0
 assign_to_open_facility[5,3,3]: - y[3] + x[5,3,3] <= 0
 assign_to_open_facility[5,4,1]: - y[4] + x[5,4,1] <= 0
 assign_to_open_facility[5,4,2]: - y[4] + x[5,4,2] <= 0
 assign_to_open_facility[5,4,3]: - y[4] + x[5,4,3] <= 0
 assign_to_open_facility[5,5,1]: - y[5] + x[5,5,1] <= 0
 assign_to_open_facility[5,5,2]: - y[5] + x[5,5,2] <= 0
 assign_to_open_facility[5,5,3]: - y[5] + x[5,5,3] <= 0
 assign_to_open_facility[5,6,1]: - y[6] + x[5,6,1] <= 0
 assign_to_open_facility[5,6,2]: - y[6] + x[5,6,2] <= 0
 assign_to_open_facility[5,6,3]: - y[6] + x[5,6,3] <= 0
 assign_to_open_facility[5,7,1]: - y[7] + x[5,7,1] <= 0
 assign_to_open_facility[5,7,2]: - y[7] + x[5,7,2] <= 0
 assign_to_open_facility[5,7,3]: - y[7] + x[5,7,3] <= 0
 assign_to_open_facility[5,8,1]: - y[8] + x[5,8,1] <= 0
 assign_to_open_facility[5,8,2]: - y[8] + x[5,8,2] <= 0
 assign_to_open_facility[5,8,3]: - y[8] + x[5,8,3] <= 0
 assign_to_open_facility[5,9,1]: - y[9] + x[5,9,1] <= 0
 assign_to_open_facility[5,9,2]: - y[9] + x[5,9,2] <= 0
 assign_to_open_facility[5,9,3]: - y[9] + x[5,9,3] <= 0
 assign_to_open_facility[5,10,1]: - y[10] + x[5,10,1] <= 0
 assign_to_open_facility[5,10,2]: - y[10] + x[5,10,2] <= 0
 assign_to_open_facility[5,10,3]: - y[10] + x[5,10,3] <= 0
 assignment_capacity[1,1]: - w[1] + 7 x[1,1,1] + 6 x[2,1,1] + 8 x[3,1,1]
   + 10 x[4,1,1] + 10 x[5,1,1] <= 0
 assignment_capacity[1,2]: - w[1] + 10 x[1,1,2] + 11 x[2,1,2] + 10 x[3,1,2]
   + 16 x[4,1,2] + 16 x[5,1,2] <= 0
 assignment_capacity[1,3]: - w[1] + 23 x[1,1,3] + 28 x[2,1,3] + 23 x[3,1,3]
   + 19 x[4,1,3] + 17 x[5,1,3] <= 0
 assignment_capacity[2,1]: - w[2] + 7 x[1,2,1] + 6 x[2,2,1] + 8 x[3,2,1]
   + 10 x[4,2,1] + 10 x[5,2,1] <= 0
 assignment_capacity[2,2]: - w[2] + 10 x[1,2,2] + 11 x[2,2,2] + 10 x[3,2,2]
   + 16 x[4,2,2] + 16 x[5,2,2] <= 0
 assignment_capacity[2,3]: - w[2] + 23 x[1,2,3] + 28 x[2,2,3] + 23 x[3,2,3]
   + 19 x[4,2,3] + 17 x[5,2,3] <= 0
 assignment_capacity[3,1]: - w[3] + 7 x[1,3,1] + 6 x[2,3,1] + 8 x[3,3,1]
   + 10 x[4,3,1] + 10 x[5,3,1] <= 0
 assignment_capacity[3,2]: - w[3] + 10 x[1,3,2] + 11 x[2,3,2] + 10 x[3,3,2]
   + 16 x[4,3,2] + 16 x[5,3,2] <= 0
 assignment_capacity[3,3]: - w[3] + 23 x[1,3,3] + 28 x[2,3,3] + 23 x[3,3,3]
   + 19 x[4,3,3] + 17 x[5,3,3] <= 0
 assignment_capacity[4,1]: - w[4] + 7 x[1,4,1] + 6 x[2,4,1] + 8 x[3,4,1]
   + 10 x[4,4,1] + 10 x[5,4,1] <= 0
 assignment_capacity[4,2]: - w[4] + 10 x[1,4,2] + 11 x[2,4,2] + 10 x[3,4,2]
   + 16 x[4,4,2] + 16 x[5,4,2] <= 0
 assignment_capacity[4,3]: - w[4] + 23 x[1,4,3] + 28 x[2,4,3] + 23 x[3,4,3]
   + 19 x[4,4,3] + 17 x[5,4,3] <= 0
 assignment_capacity[5,1]: - w[5] + 7 x[1,5,1] + 6 x[2,5,1] + 8 x[3,5,1]
   + 10 x[4,5,1] + 10 x[5,5,1] <= 0
 assignment_capacity[5,2]: - w[5] + 10 x[1,5,2] + 11 x[2,5,2] + 10 x[3,5,2]
   + 16 x[4,5,2] + 16 x[5,5,2] <= 0
 assignment_capacity[5,3]: - w[5] + 23 x[1,5,3] + 28 x[2,5,3] + 23 x[3,5,3]
   + 19 x[4,5,3] + 17 x[5,5,3] <= 0
 assignment_capacity[6,1]: - w[6] + 7 x[1,6,1] + 6 x[2,6,1] + 8 x[3,6,1]
   + 10 x[4,6,1] + 10 x[5,6,1] <= 0
 assignment_capacity[6,2]: - w[6] + 10 x[1,6,2] + 11 x[2,6,2] + 10 x[3,6,2]
   + 16 x[4,6,2] + 16 x[5,6,2] <= 0
 assignment_capacity[6,3]: - w[6] + 23 x[1,6,3] + 28 x[2,6,3] + 23 x[3,6,3]
   + 19 x[4,6,3] + 17 x[5,6,3] <= 0
 assignment_capacity[7,1]: - w[7] + 7 x[1,7,1] + 6 x[2,7,1] + 8 x[3,7,1]
   + 10 x[4,7,1] + 10 x[5,7,1] <= 0
 assignment_capacity[7,2]: - w[7] + 10 x[1,7,2] + 11 x[2,7,2] + 10 x[3,7,2]
   + 16 x[4,7,2] + 16 x[5,7,2] <= 0
 assignment_capacity[7,3]: - w[7] + 23 x[1,7,3] + 28 x[2,7,3] + 23 x[3,7,3]
   + 19 x[4,7,3] + 17 x[5,7,3] <= 0
 assignment_capacity[8,1]: - w[8] + 7 x[1,8,1] + 6 x[2,8,1] + 8 x[3,8,1]
   + 10 x[4,8,1] + 10 x[5,8,1] <= 0
 assignment_capacity[8,2]: - w[8] + 10 x[1,8,2] + 11 x[2,8,2] + 10 x[3,8,2]
   + 16 x[4,8,2] + 16 x[5,8,2] <= 0
 assignment_capacity[8,3]: - w[8] + 23 x[1,8,3] + 28 x[2,8,3] + 23 x[3,8,3]
   + 19 x[4,8,3] + 17 x[5,8,3] <= 0
 assignment_capacity[9,1]: - w[9] + 7 x[1,9,1] + 6 x[2,9,1] + 8 x[3,9,1]
   + 10 x[4,9,1] + 10 x[5,9,1] <= 0
 assignment_capacity[9,2]: - w[9] + 10 x[1,9,2] + 11 x[2,9,2] + 10 x[3,9,2]
   + 16 x[4,9,2] + 16 x[5,9,2] <= 0
 assignment_capacity[9,3]: - w[9] + 23 x[1,9,3] + 28 x[2,9,3] + 23 x[3,9,3]
   + 19 x[4,9,3] + 17 x[5,9,3] <= 0
 assignment_capacity[10,1]: - w[10] + 7 x[1,10,1] + 6 x[2,10,1]
   + 8 x[3,10,1] + 10 x[4,10,1] + 10 x[5,10,1] <= 0
 assignment_capacity[10,2]: - w[10] + 10 x[1,10,2] + 11 x[2,10,2]
   + 10 x[3,10,2] + 16 x[4,10,2] + 16 x[5,10,2] <= 0
 assignment_capacity[10,3]: - w[10] + 23 x[1,10,3] + 28 x[2,10,3]
   + 23 x[3,10,3] + 19 x[4,10,3] + 17 x[5,10,3] <= 0
 demand_fulfillment[1,1]: x[1,1,1] + x[1,2,1] + x[1,3,1] + x[1,4,1]
   + x[1,5,1] + x[1,6,1] + x[1,7,1] + x[1,8,1] + x[1,9,1] + x[1,10,1] = 1
 demand_fulfillment[1,2]: x[1,1,2] + x[1,2,2] + x[1,3,2] + x[1,4,2]
   + x[1,5,2] + x[1,6,2] + x[1,7,2] + x[1,8,2] + x[1,9,2] + x[1,10,2] = 1
 demand_fulfillment[1,3]: x[1,1,3] + x[1,2,3] + x[1,3,3] + x[1,4,3]
   + x[1,5,3] + x[1,6,3] + x[1,7,3] + x[1,8,3] + x[1,9,3] + x[1,10,3] = 1
 demand_fulfillment[2,1]: x[2,1,1] + x[2,2,1] + x[2,3,1] + x[2,4,1]
   + x[2,5,1] + x[2,6,1] + x[2,7,1] + x[2,8,1] + x[2,9,1] + x[2,10,1] = 1
 demand_fulfillment[2,2]: x[2,1,2] + x[2,2,2] + x[2,3,2] + x[2,4,2]
   + x[2,5,2] + x[2,6,2] + x[2,7,2] + x[2,8,2] + x[2,9,2] + x[2,10,2] = 1
 demand_fulfillment[2,3]: x[2,1,3] + x[2,2,3] + x[2,3,3] + x[2,4,3]
   + x[2,5,3] + x[2,6,3] + x[2,7,3] + x[2,8,3] + x[2,9,3] + x[2,10,3] = 1
 demand_fulfillment[3,1]: x[3,1,1] + x[3,2,1] + x[3,3,1] + x[3,4,1]
   + x[3,5,1] + x[3,6,1] + x[3,7,1] + x[3,8,1] + x[3,9,1] + x[3,10,1] = 1
 demand_fulfillment[3,2]: x[3,1,2] + x[3,2,2] + x[3,3,2] + x[3,4,2]
   + x[3,5,2] + x[3,6,2] + x[3,7,2] + x[3,8,2] + x[3,9,2] + x[3,10,2] = 1
 demand_fulfillment[3,3]: x[3,1,3] + x[3,2,3] + x[3,3,3] + x[3,4,3]
   + x[3,5,3] + x[3,6,3] + x[3,7,3] + x[3,8,3] + x[3,9,3] + x[3,10,3] = 1
 demand_fulfillment[4,1]: x[4,1,1] + x[4,2,1] + x[4,3,1] + x[4,4,1]
   + x[4,5,1] + x[4,6,1] + x[4,7,1] + x[4,8,1] + x[4,9,1] + x[4,10,1] = 1
 demand_fulfillment[4,2]: x[4,1,2] + x[4,2,2] + x[4,3,2] + x[4,4,2]
   + x[4,5,2] + x[4,6,2] + x[4,7,2] + x[4,8,2] + x[4,9,2] + x[4,10,2] = 1
 demand_fulfillment[4,3]: x[4,1,3] + x[4,2,3] + x[4,3,3] + x[4,4,3]
   + x[4,5,3] + x[4,6,3] + x[4,7,3] + x[4,8,3] + x[4,9,3] + x[4,10,3] = 1
 demand_fulfillment[5,1]: x[5,1,1] + x[5,2,1] + x[5,3,1] + x[5,4,1]
   + x[5,5,1] + x[5,6,1] + x[5,7,1] + x[5,8,1] + x[5,9,1] + x[5,10,1] = 1
 demand_fulfillment[5,2]: x[5,1,2] + x[5,2,2] + x[5,3,2] + x[5,4,2]
   + x[5,5,2] + x[5,6,2] + x[5,7,2] + x[5,8,2] + x[5,9,2] + x[5,10,2] = 1
 demand_fulfillment[5,3]: x[5,1,3] + x[5,2,3] + x[5,3,3] + x[5,4,3]
   + x[5,5,3] + x[5,6,3] + x[5,7,3] + x[5,8,3] + x[5,9,3] + x[5,10,3] = 1
 facility_capacity[1]: - 60 y[1] + w[1] <= 0
 facility_capacity[2]: - 60 y[2] + w[2] <= 0
 facility_capacity[3]: - 60 y[3] + w[3] <= 0
 facility_capacity[4]: - 60 y[4] + w[4] <= 0
 facility_capacity[5]: - 60 y[5] + w[5] <= 0
 facility_capacity[6]: - 60 y[6] + w[6] <= 0
 facility_capacity[7]: - 60 y[7] + w[7] <= 0
 facility_capacity[8]: - 60 y[8] + w[8] <= 0
 facility_capacity[9]: - 60 y[9] + w[9] <= 0
 facility_capacity[10]: - 60 y[10] + w[10] <= 0
 number_of_facilities: y[1] + y[2] + y[3] + y[4] + y[5] + y[6] + y[7]
   + y[8] + y[9] + y[10] <= 3
 upper_bound[1,1,1]: x[1,1,1] <= 1
 upper_bound[1,1,2]: x[1,1,2] <= 1
 upper_bound[1,1,3]: x[1,1,3] <= 1
 upper_bound[1,2,1]: x[1,2,1] <= 1
 upper_bound[1,2,2]: x[1,2,2] <= 1
 upper_bound[1,2,3]: x[1,2,3] <= 1
 upper_bound[1,3,1]: x[1,3,1] <= 1
 upper_bound[1,3,2]: x[1,3,2] <= 1
 upper_bound[1,3,3]: x[1,3,3] <= 1
 upper_bound[1,4,1]: x[1,4,1] <= 1
 upper_bound[1,4,2]: x[1,4,2] <= 1
 upper_bound[1,4,3]: x[1,4,3] <= 1
 upper_bound[1,5,1]: x[1,5,1] <= 1
 upper_bound[1,5,2]: x[1,5,2] <= 1
 upper_bound[1,5,3]: x[1,5,3] <= 1
 upper_bound[1,6,1]: x[1,6,1] <= 1
 upper_bound[1,6,2]: x[1,6,2] <= 1
 upper_bound[1,6,3]: x[1,6,3] <= 1
 upper_bound[1,7,1]: x[1,7,1] <= 1
 upper_bound[1,7,2]: x[1,7,2] <= 1
 upper_bound[1,7,3]: x[1,7,3] <= 1
 upper_bound[1,8,1]: x[1,8,1] <= 1
 upper_bound[1,8,2]: x[1,8,2] <= 1
 upper_bound[1,8,3]: x[1,8,3] <= 1
 upper_bound[1,9,1]: x[1,9,1] <= 1
 upper_bound[1,9,2]: x[1,9,2] <= 1
 upper_bound[1,9,3]: x[1,9,3] <= 1
 upper_bound[1,10,1]: x[1,10,1] <= 1
 upper_bound[1,10,2]: x[1,10,2] <= 1
 upper_bound[1,10,3]: x[1,10,3] <= 1
 upper_bound[2,1,1]: x[2,1,1] <= 1
 upper_bound[2,1,2]: x[2,1,2] <= 1
 upper_bound[2,1,3]: x[2,1,3] <= 1
 upper_bound[2,2,1]: x[2,2,1] <= 1
 upper_bound[2,2,2]: x[2,2,2] <= 1
 upper_bound[2,2,3]: x[2,2,3] <= 1
 upper_bound[2,3,1]: x[2,3,1] <= 1
 upper_bound[2,3,2]: x[2,3,2] <= 1
 upper_bound[2,3,3]: x[2,3,3] <= 1
 upper_bound[2,4,1]: x[2,4,1] <= 1
 upper_bound[2,4,2]: x[2,4,2] <= 1
 upper_bound[2,4,3]: x[2,4,3] <= 1
 upper_bound[2,5,1]: x[2,5,1] <= 1
 upper_bound[2,5,2]: x[2,5,2] <= 1
 upper_bound[2,5,3]: x[2,5,3] <= 1
 upper_bound[2,6,1]: x[2,6,1] <= 1
 upper_bound[2,6,2]: x[2,6,2] <= 1
 upper_bound[2,6,3]: x[2,6,3] <= 1
 upper_bound[2,7,1]: x[2,7,1] <= 1
 upper_bound[2,7,2]: x[2,7,2] <= 1
 upper_bound[2,7,3]: x[2,7,3] <= 1
 upper_bound[2,8,1]: x[2,8,1] <= 1
 upper_bound[2,8,2]: x[2,8,2] <= 1
 upper_bound[2,8,3]: x[2,8,3] <= 1
 upper_bound[2,9,1]: x[2,9,1] <= 1
 upper_bound[2,9,2]: x[2,9,2] <= 1
 upper_bound[2,9,3]: x[2,9,3] <= 1
 upper_bound[2,10,1]: x[2,10,1] <= 1
 upper_bound[2,10,2]: x[2,10,2] <= 1
 upper_bound[2,10,3]: x[2,10,3] <= 1
 upper_bound[3,1,1]: x[3,1,1] <= 1
 upper_bound[3,1,2]: x[3,1,2] <= 1
 upper_bound[3,1,3]: x[3,1,3] <= 1
 upper_bound[3,2,1]: x[3,2,1] <= 1
 upper_bound[3,2,2]: x[3,2,2] <= 1
 upper_bound[3,2,3]: x[3,2,3] <= 1
 upper_bound[3,3,1]: x[3,3,1] <= 1
 upper_bound[3,3,2]: x[3,3,2] <= 1
 upper_bound[3,3,3]: x[3,3,3] <= 1
 upper_bound[3,4,1]: x[3,4,1] <= 1
 upper_bound[3,4,2]: x[3,4,2] <= 1
 upper_bound[3,4,3]: x[3,4,3] <= 1
 upper_bound[3,5,1]: x[3,5,1] <= 1
 upper_bound[3,5,2]: x[3,5,2] <= 1
 upper_bound[3,5,3]: x[3,5,3] <= 1
 upper_bound[3,6,1]: x[3,6,1] <= 1
 upper_bound[3,6,2]: x[3,6,2] <= 1
 upper_bound[3,6,3]: x[3,6,3] <= 1
 upper_bound[3,7,1]: x[3,7,1] <= 1
 upper_bound[3,7,2]: x[3,7,2] <= 1
 upper_bound[3,7,3]: x[3,7,3] <= 1
 upper_bound[3,8,1]: x[3,8,1] <= 1
 upper_bound[3,8,2]: x[3,8,2] <= 1
 upper_bound[3,8,3]: x[3,8,3] <= 1
 upper_bound[3,9,1]: x[3,9,1] <= 1
 upper_bound[3,9,2]: x[3,9,2] <= 1
 upper_bound[3,9,3]: x[3,9,3] <= 1
 upper_bound[3,10,1]: x[3,10,1] <= 1
 upper_bound[3,10,2]: x[3,10,2] <= 1
 upper_bound[3,10,3]: x[3,10,3] <= 1
 upper_bound[4,1,1]: x[4,1,1] <= 1
 upper_bound[4,1,2]: x[4,1,2] <= 1
 upper_bound[4,1,3]: x[4,1,3] <= 1
 upper_bound[4,2,1]: x[4,2,1] <= 1
 upper_bound[4,2,2]: x[4,2,2] <= 1
 upper_bound[4,2,3]: x[4,2,3] <= 1
 upper_bound[4,3,1]: x[4,3,1] <= 1
 upper_bound[4,3,2]: x[4,3,2] <= 1
 upper_bound[4,3,3]: x[4,3,3] <= 1
 upper_bound[4,4,1]: x[4,4,1] <= 1
 upper_bound[4,4,2]: x[4,4,2] <= 1
 upper_bound[4,4,3]: x[4,4,3] <= 1
 upper_bound[4,5,1]: x[4,5,1] <= 1
 upper_bound[4,5,2]: x[4,5,2] <= 1
 upper_bound[4,5,3]: x[4,5,3] <= 1
 upper_bound[4,6,1]: x[4,6,1] <= 1
 upper_bound[4,6,2]: x[4,6,2] <= 1
 upper_bound[4,6,3]: x[4,6,3] <= 1
 upper_bound[4,7,1]: x[4,7,1] <= 1
 upper_bound[4,7,2]: x[4,7,2] <= 1
 upper_bound[4,7,3]: x[4,7,3] <= 1
 upper_bound[4,8,1]: x[4,8,1] <= 1
 upper_bound[4,8,2]: x[4,8,2] <= 1
 upper_bound[4,8,3]: x[4,8,3] <= 1
 upper_bound[4,9,1]: x[4,9,1] <= 1
 upper_bound[4,9,2]: x[4,9,2] <= 1
 upper_bound[4,9,3]: x[4,9,3] <= 1
 upper_bound[4,10,1]: x[4,10,1] <= 1
 upper_bound[4,10,2]: x[4,10,2] <= 1
 upper_bound[4,10,3]: x[4,10,3] <= 1
 upper_bound[5,1,1]: x[5,1,1] <= 1
 upper_bound[5,1,2]: x[5,1,2] <= 1
 upper_bound[5,1,3]: x[5,1,3] <= 1
 upper_bound[5,2,1]: x[5,2,1] <= 1
 upper_bound[5,2,2]: x[5,2,2] <= 1
 upper_bound[5,2,3]: x[5,2,3] <= 1
 upper_bound[5,3,1]: x[5,3,1] <= 1
 upper_bound[5,3,2]: x[5,3,2] <= 1
 upper_bound[5,3,3]: x[5,3,3] <= 1
 upper_bound[5,4,1]: x[5,4,1] <= 1
 upper_bound[5,4,2]: x[5,4,2] <= 1
 upper_bound[5,4,3]: x[5,4,3] <= 1
 upper_bound[5,5,1]: x[5,5,1] <= 1
 upper_bound[5,5,2]: x[5,5,2] <= 1
 upper_bound[5,5,3]: x[5,5,3] <= 1
 upper_bound[5,6,1]: x[5,6,1] <= 1
 upper_bound[5,6,2]: x[5,6,2] <= 1
 upper_bound[5,6,3]: x[5,6,3] <= 1
 upper_bound[5,7,1]: x[5,7,1] <= 1
 upper_bound[5,7,2]: x[5,7,2] <= 1
 upper_bound[5,7,3]: x[5,7,3] <= 1
 upper_bound[5,8,1]: x[5,8,1] <= 1
 upper_bound[5,8,2]: x[5,8,2] <= 1
 upper_bound[5,8,3]: x[5,8,3] <= 1
 upper_bound[5,9,1]: x[5,9,1] <= 1
 upper_bound[5,9,2]: x[5,9,2] <= 1
 upper_bound[5,9,3]: x[5,9,3] <= 1
 upper_bound[5,10,1]: x[5,10,1] <= 1
 upper_bound[5,10,2]: x[5,10,2] <= 1
 upper_bound[5,10,3]: x[5,10,3] <= 1
Bounds
Binaries
 y[1] y[2] y[3] y[4] y[5] y[6] y[7] y[8] y[9] y[10]
End
